results/x-filo0/X-n143-k7.vrp_seed-19.vrp.sol
Route #1: 13 130 136 115 116 78 126
Route #2: 84 127 25 36 16 32 7 19 97 120 85 35 91 56 28 133 90 65 54 118 128 68
Route #3: 109 9 71 50 49 51 88 73 142 55 139 95 57 66 99 20 52 59 40 70 124 4
Route #4: 117 108 92 134 103 10 113 63 112 26 75 94 3 76 129 105 138 34 121 30 46 67
Route #5: 12 89 45 61 64 44 74 11 100 81 62 104 132 23 21 125 33 96 47 18
Route #6: 17 2 41 86 5 107 8 43 114 110 53 102 6 31 98 79 60 72 111 1 87 48 58 135 93
Route #7: 83 137 82 123 14 37 122 77 22 119 80 39 29 42 131 69 140 141 15 38 27 106 24 101
Cost 16150.000000