results/x-long/X-n143-k7.vrp_seed-19.out
15726	1153
